DIR: 0.0, EFF: 0.8333333333333333, INT: 0.08333333333333333, OBJ: 0.08333333333333333
original problem has 8874 variables (8874 bin, 0 int, 0 impl, 0 cont) and 613 constraints
unknown variable <t_x4> in line 2 of solution file </mnt/lscratch/users/dferrario/Adaptive-Cutsel-MILP/TransformedSolutions/air04__trans__seed__1.sol>
  (further unknown variables are ignored)
1/1 feasible solution given by solution candidate storage, new primal bound 5.613700e+04

presolving:
   (0.1s) running MILP presolver
   (0.1s) MILP presolver (2 rounds): 0 aggregations, 35 fixings, 0 bound changes
   (0.9s) probing: 872/7618 (11.4%) - 8 fixings, 1 aggregations, 11798 implications, 0 bound changes
   (0.9s) probing aborted: 50/50 successive totally useless probings
presolving (1 rounds: 1 fast, 1 medium, 1 exhaustive):
 1265 deleted vars, 0 deleted constraints, 0 added constraints, 0 tightened bounds, 0 added holes, 0 changed sides, 0 changed coefficients
 0 implications, 12401 cliques
presolved problem has 7609 variables (7609 bin, 0 int, 0 impl, 0 cont) and 613 constraints
    613 constraints of type <setppc>
transformed objective value is always integral (scale: 1)
Presolving Time: 0.89
transformed 1/1 original solutions to the transformed problem space

 time | node  | left  |LP iter|LP it/n|mem/heur|mdpt |vars |cons |rows |cuts |sepa|confs|strbr|  dualbound   | primalbound  |  gap   | compl. 
  3.6s|     1 |     0 | 12024 |     - |   118M |   0 |7609 | 613 | 613 |   0 |  0 |   0 |   0 | 5.553544e+04 | 5.613700e+04 |   1.08%| unknown
Computing relative interior point (time limit: 16.4128, iter limit: 120240) ...

SCIP Status        : solving was interrupted [time limit reached]
Solving Time (sec) : 20.26
Solving Nodes      : 1
Primal Bound       : +5.61370000000000e+04 (1 solutions)
Dual Bound         : +5.55354363882243e+04
Gap                : 1.08 %
